r = [
0,60,22,161,78,66,17,35,113,63,112,73,75,159,52,135,37,125,3,100,164,79,140,104,85,116,0
];
p = [
0,18,12,18,20,21,1,30,18,10,10,16,18,7,8,3,21,1,18,1,2,28,6,24,19,2,0
];
e = [
0,18,16,20,10,10,2,8,9,20,16,2,2,15,4,15,19,20,12,8,11,11,18,6,15,7,0
];
d = [
0,354,78,426,305,363,75,185,252,114,291,286,189,284,77,241,334,188,67,415,357,309,396,186,271,363,442
];
d_bar = [
0,370,89,442,323,382,76,212,268,123,300,300,205,290,84,244,353,189,83,416,359,334,401,208,288,365,442
];
w = [
0,1.125,1.454545455,1.25,0.555555556,0.526315789,2,0.296296296,0.5625,2.222222222,1.777777778,0.142857143,0.125,2.5,0.571428571,5,1,20,0.75,8,5.5,0.44,3.6,0.272727273,0.882352941,3.5,0
];
